Version identifier: 12.10.0.0 | 2019-11-26 | 843d4de
CPXPARAM_Preprocessing_Presolve                  0
CPXPARAM_Read_DataCheck                          1
CPXPARAM_Threads                                 1
CPXPARAM_MIP_Display                             4
CPXPARAM_MIP_Strategy_Search                     1
CPXPARAM_MIP_Interval                            1
CPXPARAM_TimeLimit                               1800
CPXPARAM_MIP_Limits_CutsFactor                   0
Lazy constraint(s) or lazy constraint/branch callback is present.
    Disabling dual reductions (CPX_PARAM_REDUCE) in presolve.
    Disabling non-linear reductions (CPX_PARAM_PRELINEAR) in presolve.
    Disabling presolve reductions that prevent crushing forms.
Dual steepest-edge pricing selected.
MIP emphasis: balance optimality and feasibility.
MIP search method: traditional branch-and-cut.
Parallel mode: none, using 1 thread.
Initializing dual steep norms . . .

Iteration log . . .
Iteration:     1   Dual objective     =        203230.000000
Iteration:    62   Dual objective     =       2699547.000000
Root relaxation solution time = 0.00 sec. (0.51 ticks)

        Nodes                                         Cuts/
   Node  Left     Objective  IInf  Best Integer    Best Bound    ItCnt     Gap         Variable B NodeID Parent  Depth

      0     0  2789743.0000     6                2789743.0000       76         
Node 0, add 4 user cuts in 0.3289s, total cuts 4
      0     0  2820157.0000     6                     User: 4       85         
Node 0, add 9 user cuts in 0.2808s, total cuts 13
      0     0  2844616.0000     6                     User: 9       92         
Node 0, add 3 user cuts in 0.2939s, total cuts 16
      0     0  2847404.0000     6                     User: 3       93         
Node 0, add 1 user cuts in 0.4445s, total cuts 17
      0     0  2850521.2500     6                     User: 1       94         
Node 0, add 0 user cuts in 0.4772s, total cuts 17
*     0+    0                      3480469.0000  2850521.2500            18.10%
Found incumbent of value 3480469.000000 after 1.84 sec. (8.32 ticks)
*     0+    0                      3261880.0000  2850521.2500            12.61%
Found incumbent of value 3261880.000000 after 1.86 sec. (11.76 ticks)
      0     2  2850521.2500    30  3261880.0000  2853186.0000       94   12.53%                        0             0
Elapsed time = 1.88 sec. (18.73 ticks, tree = 0.01 MB, solutions = 2)
